Solver command line: ['C:\\gurobi912\\win64\\bin\\gurobi.bat']

Academic license - for non-commercial use only - expires 2022-06-24

Using license file C:\Users\jhonnyvs\gurobi.lic

Read LP format model from file C:\Users\jhonnyvs\AppData\Local\Temp\tmplv33o_95.pyomo.lp

Reading time = 1.49 seconds

x113886: 131403 rows, 96366 columns, 302275 nonzeros

Changed value of parameter timelimit to 36000.0

   Prev: inf  Min: 0.0  Max: inf  Default: inf

Changed value of parameter mipgap to 0.05

   Prev: 0.0001  Min: 0.0  Max: inf  Default: 0.0001

Gurobi Optimizer version 9.1.2 build v9.1.2rc0 (win64)

Thread count: 2 physical cores, 4 logical processors, using up to 4 threads

Optimize a model with 131403 rows, 96366 columns and 302275 nonzeros

Model fingerprint: 0xb996adb0

Variable types: 87605 continuous, 8761 integer (0 binary)

Coefficient statistics:

  Matrix range     [1e-03, 2e+01]

  Objective range  [6e-02, 5e+04]

  Bounds range     [1e+00, 7e+05]

  RHS range        [2e-01, 1e+02]

Presolve removed 50743 rows and 41983 columns

Presolve time: 0.75s

Presolved: 80660 rows, 54383 columns, 200792 nonzeros

Variable types: 45622 continuous, 8761 integer (0 binary)



Deterministic concurrent LP optimizer: primal and dual simplex

Showing first log only...



Concurrent spin time: 0.60s



Solved with dual simplex



Root relaxation: objective 1.313901e+05, 12812 iterations, 4.10 seconds



    Nodes    |    Current Node    |     Objective Bounds      |     Work

 Expl Unexpl |  Obj  Depth IntInf | Incumbent    BestBd   Gap | It/Node Time



     0     0 131390.136    0 8267          - 131390.136      -     -    6s

H    0     0                    294415.14198 131390.136  55.4%     -    9s

     0     0 138957.170    0 4856 294415.142 138957.170  52.8%     -   13s

     0     0 139701.156    0 7290 294415.142 139701.156  52.5%     -   22s

     0     0 139897.525    0 6761 294415.142 139897.525  52.5%     -   24s

     0     0 139897.534    0 6761 294415.142 139897.534  52.5%     -   25s

     0     0 140267.259    0 5752 294415.142 140267.259  52.4%     -   32s

H    0     0                    152667.93946 140267.259  8.12%     -   42s

     0     0 140420.934    0 4991 152667.939 140420.934  8.02%     -   45s

     0     0 140424.879    0 4990 152667.939 140424.879  8.02%     -   46s

     0     0 140424.898    0 4990 152667.939 140424.898  8.02%     -   46s

     0     0 140792.581    0 4969 152667.939 140792.581  7.78%     -   50s

     0     0 140811.922    0 4966 152667.939 140811.922  7.77%     -   50s

     0     0 140812.669    0 4964 152667.939 140812.669  7.77%     -   50s

     0     0 140872.026    0 4922 152667.939 140872.026  7.73%     -   55s

     0     0 140884.131    0 4925 152667.939 140884.131  7.72%     -   55s

     0     0 140884.796    0 4927 152667.939 140884.796  7.72%     -   56s

     0     0 140977.867    0 3204 152667.939 140977.867  7.66%     -   58s

     0     0 140985.157    0 2973 152667.939 140985.157  7.65%     -   59s

     0     0 140985.998    0 2973 152667.939 140985.998  7.65%     -   59s

     0     0 140988.581    0 2971 152667.939 140988.581  7.65%     -   61s

     0     0 140988.581    0 2971 152667.939 140988.581  7.65%     -   64s

H    0     0                    152551.25888 140988.581  7.58%     -   64s

H    0     2                    152418.24303 140988.581  7.50%     -   66s

     0     2 140988.581    0 2971 152418.243 140988.581  7.50%     -   66s

     1     4 150205.739    1 1467 152418.243 140989.763  7.50% 10989   70s

     3     4     cutoff    2      152418.243 140990.892  7.50%  8480   79s

     5     6 150210.693    2 1467 152418.243 140991.463  7.50%  5233   82s

     9     8     cutoff    4      152418.243 140993.149  7.50%  5695   94s

    11     9     cutoff    3      152418.243 140993.149  7.50%  6017  102s

    14    11 150215.425    4 1465 152418.243 140993.149  7.50%  4728  113s

    22    25 150222.452    7 1462 152418.243 140993.149  7.50%  3791  125s

H   30    25                    152336.56663 140993.149  7.45%  3437  125s

H   31    25                    144452.39793 140993.149  2.39%  3326  125s



Cutting planes:

  MIR: 20517



Explored 34 nodes (169528 simplex iterations) in 125.14 seconds

Thread count was 4 (of 4 available processors)



Solution count 6: 144452 152337 152418 ... 294415



Optimal solution found (tolerance 5.00e-02)

Best objective 1.444523979281e+05, best bound 1.409931494565e+05, gap 2.3947%


